(set-info :Origin "This instance was generated by: BanditFuzz-- an RL fuzzer for SMT solvers" )
(set-info :Author "Joe Scott, Fed Mora, Vijay Ganesh" )
(set-info :Contact "Joe Scott, joseph.scott@uwaterloo.ca")
; solvers/z3.sh
; 	time => 0.7786281108856201
; 	answer => sat
; solvers/bitwuzla.sh
; 	time => 0.2194077968597412
; 	answer => sat
; solvers/cvc4.sh
; 	time => 0.1079552173614502
; 	answer => err
(set-logic QF_BV)
(declare-const bool_0 Bool)
(declare-const bool_1 Bool)
(declare-const bool_2 Bool)
(declare-const bool_3 Bool)
(declare-const bool_4 Bool)
(declare-const bv_0 (_ BitVec 32))
(declare-const bv_1 (_ BitVec 32))
(declare-const bv_2 (_ BitVec 32))
(declare-const bv_3 (_ BitVec 32))
(declare-const bv_4 (_ BitVec 32))
(assert (or (bvslt (bvnand #xf0a666a7  #x075c42d7 ) (bvand #x7351eba3  bv_2)) (bvule (bvxnor bv_3 bv_0) (bvudiv #xe6014b4a  #xf63ca898 ))))
(assert (bvult (bvshl (bvor #xbf0fe5d5  #x0336fb12 ) (bvxnor bv_0 bv_0)) (bvmul (bvsub bv_2 #x159fc570 ) (bvor #x7a9540ba  bv_4))))
(assert (bvule (bvxor (bvsrem bv_4 bv_1) (bvor bv_0 bv_3)) (bvurem (bvand bv_0 #xe908988d ) (bvand bv_3 #x675f4493 ))))
(assert (bvslt (bvshl (bvor #x2b8fdce0  bv_3) (bvsub #xb36f3731  bv_2)) (bvlshr (bvmul #x6f1ad68d  #xcc08c29b ) (bvxor bv_0 bv_3))))
(assert (bvslt (bvsmod (bvxnor #x198adfba  #x5aa5180d ) (bvsub #x0e0282ad  #x28a6cd9c )) (bvshl (bvshl bv_3 bv_1) (bvsdiv bv_4 bv_3))))
(check-sat)
(exit)
